language ESSENCE' 1.0

letting n_courses be 197
letting n_periods be 25
letting prerequisite_RelationAsSet_Explicit_1 be
        [1, 1, 1, 1, 1, 1, 2, 2, 2, 2, 2, 2, 2, 2, 3, 3, 3, 3, 3, 3, 3, 4, 4, 4, 4, 4, 4, 4, 4, 4, 4, 5, 5, 5, 5, 5, 5,
         5, 5, 6, 6, 6, 6, 6, 7, 7, 7, 7, 7, 7, 7, 7, 7, 8, 8, 8, 8, 8, 8, 8, 9, 9, 9, 9, 9, 9, 9, 9, 9, 10, 10, 10, 10,
         10, 11, 11, 11, 11, 11, 11, 11, 11, 11, 11, 12, 12, 12, 12, 12, 12, 12, 12, 12, 13, 13, 13, 13, 13, 13, 13, 13,
         13, 13, 13, 13, 14, 14, 14, 14, 14, 14, 14, 14, 14, 14, 14, 15, 15, 15, 15, 15, 16, 16, 16, 16, 16, 16, 16, 17,
         17, 17, 17, 17, 17, 18, 18, 18, 18, 18, 18, 18, 18, 18, 18, 18, 18, 18, 19, 19, 19, 19, 19, 19, 19, 19, 19, 19,
         20, 20, 20, 20, 20, 20, 20, 20, 20, 21, 21, 21, 21, 21, 21, 21, 22, 22, 22, 22, 22, 22, 22, 22, 22, 22, 22, 22,
         22, 22, 23, 23, 23, 23, 23, 23, 24, 24, 24, 24, 24, 24, 24, 24, 24, 24, 24, 24, 24, 24, 25, 25, 25, 25, 25, 25,
         25, 25, 25, 25, 25, 26, 26, 26, 26, 26, 26, 28, 30, 31, 32, 34, 37, 39, 40, 46, 49, 52, 52, 53, 53, 55, 55, 56,
         57, 58, 59, 60, 61, 61, 62, 63, 63, 67, 67, 68, 68, 69, 72, 76, 77, 77, 78, 79, 80, 81, 83, 88, 90, 92, 92, 94,
         97, 99, 101, 102, 103, 103, 104, 104, 105, 105, 106, 108, 109, 109, 111, 112, 113, 114, 118, 120, 121, 123,
         131, 132, 140, 142, 142, 145, 150, 154, 155, 158, 158, 160, 162, 162, 162, 163, 164, 164, 169;
             int(1..310)]
letting prerequisite_RelationAsSet_Explicit_2 be
        [35, 108, 140, 148, 151, 155, 43, 59, 73, 101, 107, 124, 144, 150, 38, 67, 122, 138, 161, 163, 164, 48, 52, 66,
         101, 102, 125, 139, 141, 142, 166, 46, 62, 70, 91, 137, 152, 164, 169, 53, 56, 143, 156, 164, 85, 92, 97, 98,
         100, 112, 130, 132, 160, 30, 57, 66, 96, 102, 122, 170, 75, 76, 77, 80, 83, 95, 100, 135, 154, 72, 120, 127,
         146, 163, 29, 45, 54, 88, 119, 121, 124, 148, 149, 165, 47, 64, 74, 84, 112, 113, 156, 161, 164, 29, 40, 63,
         68, 78, 84, 94, 111, 115, 118, 131, 167, 86, 90, 93, 98, 104, 105, 123, 125, 129, 137, 147, 42, 99, 109, 117,
         164, 36, 81, 85, 87, 109, 137, 159, 53, 111, 117, 133, 157, 164, 33, 36, 58, 68, 69, 70, 79, 106, 108, 111,
         122, 129, 162, 33, 44, 65, 78, 83, 84, 87, 89, 168, 170, 31, 40, 49, 55, 63, 67, 110, 116, 139, 28, 45, 84,
         113, 114, 136, 158, 32, 38, 41, 50, 51, 60, 65, 88, 104, 121, 126, 153, 167, 168, 27, 39, 59, 89, 109, 141, 34,
         55, 68, 71, 73, 92, 93, 102, 103, 116, 129, 133, 134, 170, 33, 37, 87, 126, 128, 143, 145, 147, 157, 168, 169,
         61, 82, 102, 139, 161, 167, 190, 184, 188, 191, 193, 187, 179, 175, 176, 171, 172, 178, 172, 175, 173, 192,
         175, 190, 188, 181, 197, 173, 195, 186, 171, 178, 181, 182, 175, 196, 182, 191, 181, 177, 183, 180, 197, 190,
         172, 171, 184, 180, 187, 193, 194, 173, 184, 193, 197, 186, 188, 177, 184, 186, 187, 197, 188, 174, 197, 181,
         174, 177, 175, 190, 196, 180, 179, 183, 190, 192, 181, 188, 196, 184, 185, 174, 176, 183, 189, 171, 173, 178,
         178, 177, 192, 174;
             int(1..310)]
letting course_load_Function1D be
        [4, 4, 3, 3, 8, 4, 5, 5, 3, 6, 4, 4, 4, 5, 6, 7, 5, 8, 5, 5, 8, 3, 5, 5, 6, 7, 6, 4, 8, 5, 4, 4, 4, 6, 4, 8, 3,
         8, 5, 4, 7, 4, 5, 6, 6, 7, 5, 5, 3, 7, 4, 3, 7, 5, 3, 5, 4, 4, 6, 3, 6, 6, 5, 7, 7, 4, 6, 5, 8, 5, 4, 3, 8, 7,
         7, 5, 3, 5, 6, 5, 6, 6, 6, 5, 3, 6, 5, 4, 3, 6, 7, 6, 5, 7, 4, 3, 6, 7, 6, 8, 6, 6, 4, 3, 4, 5, 6, 3, 3, 5, 4,
         4, 8, 4, 6, 8, 8, 5, 4, 7, 6, 6, 5, 6, 5, 7, 7, 8, 7, 4, 6, 3, 4, 3, 6, 8, 4, 4, 6, 6, 6, 5, 6, 7, 3, 5, 7, 6,
         7, 6, 4, 6, 3, 4, 3, 5, 7, 7, 5, 3, 3, 8, 4, 4, 7, 8, 6, 7, 3, 7, 8, 3, 3, 6, 3, 6, 7, 3, 7, 7, 6, 5, 3, 7, 5,
         7, 7, 7, 3, 7, 7, 7, 7, 4, 3, 6, 6;
             int(1..197)]
letting load_per_period_ub be 43
letting load_per_period_lb be 7
letting courses_per_period_ub be 9
letting courses_per_period_lb be 5
letting fin1 be 310
letting fin2 be 197
letting fin3 be 8
